68
100
80	3
79	3
78	2
77	2
76	4
75	4
74	8
73	6
72	2
71	6
70	3
69	2
68	4
67	4
66	2
65	2
64	4
63	5
62	5
61	5
60	4
59	3
58	6
57	5
56	5
55	2
54	7
53	5
52	5
51	4
50	1
49	3
48	4
47	7
46	4
45	6
44	4
42	4
41	6
40	3
39	8
38	6
37	5
36	4
35	3
34	3
33	7
32	10
31	1
30	6
29	5
28	7
27	4
26	4
25	3
24	6
23	3
22	8
21	7
20	5
19	4
18	2
17	6
15	3
14	4
12	6
11	2
10	4
